data;


param d:= 100;
param r:=5;
param p:=0.400000;
param M:=1000;
param U:=
         1         1       -2.846654e-02
         2         1        1.710825e+00
         3         1        8.449558e-02
         4         1       -7.535543e-01
         5         1       -1.266169e+00
         6         1        1.718301e+00
         7         1        7.717740e-01
         8         1        5.858523e-02
         9         1       -2.717102e-01
        10         1       -5.443353e-01
        11         1       -3.554998e-01
        12         1        1.750112e+00
        13         1       -2.041092e+00
        14         1        1.496120e+00
        15         1       -1.821080e+00
        16         1       -6.889755e-01
        17         1       -1.476903e+00
        18         1       -3.892273e-01
        19         1        1.584922e-01
        20         1       -7.936613e-01
        21         1        5.891070e-02
        22         1       -1.470898e+00
        23         1        5.960848e-01
        24         1       -5.189704e-02
        25         1        1.131474e+00
        26         1        6.512389e-01
        27         1        4.436696e-01
        28         1        2.267769e-01
        29         1       -5.402386e-01
        30         1        1.734531e+00
        31         1        4.574324e-01
        32         1        3.391626e-02
        33         1       -8.803772e-01
        34         1        8.308732e-01
        35         1       -1.613127e-01
        36         1        5.934951e-01
        37         1        1.803242e-02
        38         1       -4.938959e-01
        39         1       -2.457301e+00
        40         1        9.284352e-01
        41         1       -6.132103e-01
        42         1       -9.777879e-01
        43         1        2.487054e-01
        44         1       -3.895628e-02
        45         1        1.732579e+00
        46         1        1.069631e+00
        47         1       -7.089704e-01
        48         1        8.039912e-01
        49         1       -3.110130e-01
        50         1       -1.443792e+00
        51         1        3.132415e-01
        52         1       -2.032060e+00
        53         1       -3.086926e-01
        54         1        1.832071e+00
        55         1        2.954679e-01
        56         1       -6.090197e-01
        57         1        3.329753e-01
        58         1        2.777325e-01
        59         1       -1.056438e+00
        60         1       -3.051084e-01
        61         1       -1.037781e+00
        62         1        1.558370e+00
        63         1        3.121433e+00
        64         1       -3.173842e-02
        65         1        2.723357e+00
        66         1       -8.709086e-02
        67         1        1.326063e+00
        68         1       -6.251098e-01
        69         1        9.943022e-01
        70         1        2.790604e-01
        71         1        2.877672e-01
        72         1       -3.874890e-02
        73         1        1.447908e+00
        74         1        8.867426e-01
        75         1       -1.628774e-01
        76         1       -1.555652e-01
        77         1        5.829433e-02
        78         1       -8.941633e-01
        79         1        1.295102e-01
        80         1        1.106487e-01
        81         1       -1.206148e+00
        82         1        2.478678e+00
        83         1       -5.706662e-01
        84         1       -1.460399e+00
        85         1        1.051201e-02
        86         1       -1.670098e+00
        87         1       -1.025969e+00
        88         1       -2.603240e-01
        89         1        2.544461e-01
        90         1        1.227424e+00
        91         1        5.040901e-01
        92         1       -1.095650e+00
        93         1        4.661821e-03
        94         1        1.594057e+00
        95         1       -1.618415e+00
        96         1       -5.354856e-01
        97         1        3.479653e-02
        98         1       -5.158957e-01
        99         1        2.511986e+00
       100         1        1.225788e-01
         1         2       -4.341575e-01
         2         2       -4.246123e-01
         3         2        1.098956e-01
         4         2       -8.011662e-01
         5         2        6.855842e-01
         6         2        7.319074e-01
         7         2        5.800867e-01
         8         2       -2.273991e-01
         9         2       -1.362164e+00
        10         2       -8.779312e-01
        11         2       -1.448589e-01
        12         2       -1.542489e-02
        13         2       -1.809492e+00
        14         2       -4.197245e-01
        15         2        3.914834e-01
        16         2        1.216424e+00
        17         2       -5.690683e-01
        18         2        9.188753e-01
        19         2       -2.409804e+00
        20         2        1.092341e+00
        21         2        7.966604e-01
        22         2        9.719645e-01
        23         2       -6.214378e-01
        24         2        1.768812e+00
        25         2       -1.809879e-01
        26         2       -2.028480e+00
        27         2       -4.271596e-01
        28         2        9.517104e-02
        29         2        1.931900e+00
        30         2        6.668152e-02
        31         2        4.024167e-01
        32         2        9.295885e-03
        33         2       -7.880089e-01
        34         2        1.986799e-01
        35         2        4.045936e-01
        36         2       -2.316723e-01
        37         2        2.662164e+00
        38         2       -1.063603e+00
        39         2       -1.709385e-01
        40         2        2.038542e+00
        41         2        6.285940e-01
        42         2        4.327343e-01
        43         2        1.309503e+00
        44         2        9.276132e-01
        45         2       -2.690367e-01
        46         2        2.686421e-02
        47         2       -4.198279e-01
        48         2       -1.756485e+00
        49         2        4.365353e-01
        50         2        1.535450e+00
        51         2       -5.306282e-01
        52         2        1.275176e-02
        53         2        4.398658e-01
        54         2       -1.963494e+00
        55         2       -1.035323e+00
        56         2        2.511187e+00
        57         2        5.217386e-01
        58         2       -2.354730e+00
        59         2       -4.242093e-01
        60         2        9.687217e-01
        61         2        5.330933e-01
        62         2        8.110222e-01
        63         2       -1.081136e+00
        64         2       -4.889736e-01
        65         2       -3.202915e-01
        66         2       -2.592421e+00
        67         2        3.809834e-01
        68         2       -6.775159e-01
        69         2       -5.132192e-02
        70         2       -6.451078e-01
        71         2       -2.226012e-01
        72         2       -4.152082e-01
        73         2       -1.396786e+00
        74         2        3.227810e-01
        75         2        1.380945e+00
        76         2       -8.103676e-01
        77         2        3.929578e-01
        78         2       -2.186331e-01
        79         2        4.181658e-01
        80         2       -3.012190e-01
        81         2        1.491963e+00
        82         2        3.979631e-03
        83         2        6.149957e-01
        84         2       -7.999004e-01
        85         2       -2.754665e-01
        86         2        1.022772e+00
        87         2        5.669333e-01
        88         2       -1.899034e+00
        89         2        1.517261e+00
        90         2       -3.231443e-02
        91         2        1.799693e+00
        92         2        1.386663e+00
        93         2       -1.049976e+00
        94         2        9.076288e-01
        95         2       -1.011369e+00
        96         2       -4.441867e-01
        97         2        1.833028e+00
        98         2        5.741042e-02
        99         2        1.442482e+00
       100         2       -4.395401e-01
         1         3       -4.161369e-01
         2         3        3.133606e-01
         3         3       -7.300936e-01
         4         3       -1.198823e+00
         5         3        1.907529e+00
         6         3       -2.389620e+00
         7         3       -1.796375e+00
         8         3       -3.637006e-01
         9         3        5.059233e-01
        10         3        2.333081e-02
        11         3       -1.321202e+00
        12         3       -1.390836e+00
        13         3       -1.229419e-01
        14         3       -7.290922e-01
        15         3       -1.402735e+00
        16         3        1.082387e+00
        17         3       -1.010884e+00
        18         3        8.251685e-01
        19         3        5.847390e-02
        20         3       -6.235967e-01
        21         3       -7.856063e-01
        22         3       -1.094442e-01
        23         3       -3.524563e-01
        24         3        3.657618e-01
        25         3       -2.547448e-01
        26         3       -4.387962e-01
        27         3       -3.025751e-01
        28         3        3.058770e-01
        29         3       -1.138500e+00
        30         3       -1.216353e+00
        31         3       -1.059075e+00
        32         3        1.282434e+00
        33         3        1.078277e-01
        34         3       -1.417242e+00
        35         3        9.718647e-01
        36         3        5.554403e-01
        37         3        1.670616e-01
        38         3       -5.847709e-01
        39         3       -1.660367e+00
        40         3       -1.806333e-01
        41         3        1.185354e+00
        42         3        1.342963e-01
        43         3       -1.938713e-01
        44         3        6.329404e-01
        45         3        2.859216e-01
        46         3       -6.454126e-01
        47         3       -1.056469e+00
        48         3       -1.131770e+00
        49         3       -1.285001e+00
        50         3       -1.492639e+00
        51         3       -5.966203e-01
        52         3       -2.589188e-01
        53         3       -1.327037e-01
        54         3       -5.818547e-01
        55         3       -4.110531e-01
        56         3       -2.843706e-01
        57         3       -6.945807e-01
        58         3       -3.685719e-01
        59         3       -3.402072e+00
        60         3        1.456135e-01
        61         3       -1.106528e+00
        62         3       -1.147356e+00
        63         3        1.539241e-01
        64         3        8.383518e-01
        65         3       -1.545738e+00
        66         3        8.279646e-01
        67         3        1.618998e+00
        68         3        1.018141e+00
        69         3        1.661428e+00
        70         3        3.834309e-01
        71         3        1.310474e+00
        72         3        1.003882e+00
        73         3       -8.835513e-01
        74         3       -5.130227e-01
        75         3       -1.012714e+00
        76         3       -1.664772e+00
        77         3        4.257226e-02
        78         3       -2.986965e-01
        79         3        2.167594e-01
        80         3        1.575972e+00
        81         3       -7.440738e-01
        82         3       -6.723440e-01
        83         3        3.313124e-01
        84         3       -3.903920e-01
        85         3        4.946067e-01
        86         3       -9.196955e-01
        87         3       -5.957204e-01
        88         3       -1.217275e+00
        89         3        5.653688e-01
        90         3        1.970198e-01
        91         3       -1.626965e+00
        92         3        3.670939e-01
        93         3       -1.334223e+00
        94         3       -1.142332e-01
        95         3       -2.032942e-01
        96         3        1.848919e+00
        97         3       -3.733357e-01
        98         3       -7.095862e-01
        99         3        1.803384e+00
       100         3       -1.373852e+00
         1         4       -4.129881e-01
         2         4        4.888687e-01
         3         4       -4.442710e-02
         4         4        2.921183e-02
         5         4       -3.536367e-01
         6         4        2.289294e+00
         7         4        5.829775e-01
         8         4        1.119985e+00
         9         4       -2.205429e-01
        10         4        6.490276e-01
        11         4        5.094577e-01
        12         4       -1.577711e+00
        13         4       -5.162157e-01
        14         4        1.953255e+00
        15         4       -4.312168e-01
        16         4        1.009615e+00
        17         4        1.034754e+00
        18         4        1.241224e+00
        19         4        1.166924e+00
        20         4       -6.318453e-01
        21         4       -1.221094e+00
        22         4       -3.132741e-01
        23         4       -6.925235e-01
        24         4        1.034571e+00
        25         4       -5.217580e-01
        26         4        7.002100e-01
        27         4        8.434051e-01
        28         4       -1.846989e+00
        29         4        8.473998e-02
        30         4       -3.767897e-01
        31         4       -7.450700e-01
        32         4       -4.092165e-01
        33         4       -3.269516e-02
        34         4       -2.662177e-01
        35         4        8.615621e-01
        36         4        3.414188e-01
        37         4        1.688001e+00
        38         4        1.026058e+00
        39         4       -1.685192e+00
        40         4        2.184164e+00
        41         4        8.170352e-01
        42         4       -1.190000e+00
        43         4        7.759096e-01
        44         4        1.057991e+00
        45         4       -3.440602e-01
        46         4       -1.473707e+00
        47         4       -2.359675e-02
        48         4       -1.325295e+00
        49         4       -1.592034e+00
        50         4       -1.089027e+00
        51         4        1.036370e-01
        52         4       -4.772169e-02
        53         4       -8.777899e-02
        54         4        5.857591e-01
        55         4       -1.455758e+00
        56         4       -4.577245e-01
        57         4        7.355649e-01
        58         4        1.533409e-01
        59         4        5.818035e-01
        60         4       -1.730540e-01
        61         4       -1.785368e+00
        62         4        1.658423e-01
        63         4        1.125228e+00
        64         4       -2.119150e-01
        65         4        9.094479e-01
        66         4       -5.961149e-01
        67         4       -4.084398e-01
        68         4        1.175533e+00
        69         4        3.657543e-01
        70         4       -7.681704e-01
        71         4       -1.452798e+00
        72         4       -2.859320e-01
        73         4        1.561538e+00
        74         4        2.100811e-01
        75         4       -2.907540e-01
        76         4       -9.163657e-01
        77         4        4.301323e-01
        78         4       -1.070746e+00
        79         4       -1.368820e+00
        80         4       -1.104078e+00
        81         4       -1.145366e+00
        82         4        3.643238e-01
        83         4        1.510222e-01
        84         4        2.147085e+00
        85         4       -4.330643e-01
        86         4        2.500154e+00
        87         4        4.579791e-01
        88         4        1.636303e+00
        89         4       -2.008040e-01
        90         4        1.874494e+00
        91         4        4.296946e-02
        92         4       -9.783035e-01
        93         4       -8.806610e-01
        94         4       -8.153423e-01
        95         4       -5.671443e-01
        96         4       -9.732927e-01
        97         4        1.164738e+00
        98         4       -1.029786e+00
        99         4        1.213463e+00
       100         4       -9.436350e-01
         1         5        3.435449e-01
         2         5       -7.485449e-01
         3         5       -2.430974e+00
         4         5       -1.290447e+00
         5         5        9.816373e-01
         6         5        1.368294e+00
         7         5       -5.841246e-01
         8         5        1.281500e+00
         9         5       -1.826415e+00
        10         5       -9.594111e-01
        11         5        1.901210e-01
        12         5        2.349254e+00
        13         5       -1.621456e+00
        14         5       -1.009894e+00
        15         5       -2.052906e-01
        16         5        1.350007e+00
        17         5       -6.877028e-01
        18         5       -4.275755e-01
        19         5       -1.957548e+00
        20         5       -4.155763e-01
        21         5       -9.083445e-01
        22         5       -1.157416e+00
        23         5        3.249914e-01
        24         5        3.477232e-01
        25         5       -4.528927e-01
        26         5        1.026105e+00
        27         5        1.327311e-01
        28         5        7.305004e-01
        29         5       -4.997864e-01
        30         5        5.297471e-01
        31         5       -1.893207e+00
        32         5        7.702169e-01
        33         5        5.028644e-01
        34         5        1.506000e+00
        35         5        6.972373e-01
        36         5        5.652740e-01
        37         5        2.036444e-01
        38         5       -5.424047e-02
        39         5       -2.506260e+00
        40         5       -8.477583e-02
        41         5        3.534194e-01
        42         5       -3.354090e-01
        43         5        6.252705e-01
        44         5       -1.357815e+00
        45         5        2.030744e-01
        46         5       -8.904978e-01
        47         5        4.973949e-01
        48         5        1.700787e+00
        49         5       -3.012400e+00
        50         5        3.953939e-01
        51         5        7.008107e-01
        52         5        1.449780e+00
        53         5       -1.909472e-01
        54         5       -2.162766e+00
        55         5       -7.288957e-01
        56         5        9.944879e-01
        57         5        6.580267e-01
        58         5        7.133010e-01
        59         5       -1.430861e+00
        60         5       -8.301643e-01
        61         5       -4.266262e-01
        62         5       -2.569741e-01
        63         5        5.786104e-01
        64         5       -3.106518e-01
        65         5        5.016211e-01
        66         5        6.431269e-01
        67         5        6.651652e-01
        68         5        6.453086e-01
        69         5        6.725319e-01
        70         5        2.633873e-01
        71         5       -1.109162e+00
        72         5        6.411625e-01
        73         5        1.682906e-01
        74         5       -6.724482e-01
        75         5        6.647715e-02
        76         5        6.312783e-01
        77         5        1.475986e+00
        78         5       -7.647857e-01
        79         5       -2.122433e+00
        80         5       -8.668726e-01
        81         5       -1.199844e+00
        82         5       -3.105408e-02
        83         5       -1.875777e+00
        84         5       -4.031711e-01
        85         5       -1.343737e+00
        86         5       -1.000069e+00
        87         5        9.503473e-01
        88         5       -2.901919e-01
        89         5       -8.835017e-01
        90         5       -8.388605e-01
        91         5        3.603421e-01
        92         5        6.550689e-01
        93         5       -6.634058e-01
        94         5        4.574568e-01
        95         5       -1.509962e-01
        96         5       -3.306913e-01
        97         5        1.826050e+00
        98         5       -8.016966e-01
        99         5       -1.889895e+00
       100         5        2.213293e-01
;

param theta:=
    1        3.419846e-01
    2        1.194477e+00
    3        1.660269e+00
    4       -4.373583e-01
    5        1.515038e+00
;
param X_true:=
    1       -5.989229e-01
    2       -7.054523e-01
    3       -4.725601e+00
    4       -5.028736e+00
    5        5.090168e+00
    6       -1.273168e+00
    7       -3.265897e+00
    8        4.953660e-01
    9       -3.520531e+00
   10       -3.026924e+00
   11       -2.498081e+00
   12        2.558942e+00
   13       -5.480706e+00
   14       -3.501240e+00
   15       -2.487475e+00
   16        4.418264e+00
   17       -4.459470e+00
   18        1.144444e+00
   19       -6.135684e+00
   20       -4.978629e-01
   21       -1.189026e+00
   22       -1.023167e+00
   23       -4.856224e-01
   24        2.749151e+00
   25       -5.384293e-01
   26       -1.672054e+00
   27       -8.891462e-01
   28        2.507171e+00
   29       -5.949481e-01
   30       -4.036234e-01
   31       -3.683809e+00
   32        3.574723e+00
   33       -4.385763e-02
   34        7.522673e-01
   35        2.528066e+00
   36        1.489910e+00
   37        3.000828e+00
   38       -3.116724e+00
   39       -6.901557e+00
   40        1.465885e+00
   41        2.712944e+00
   42        3.623248e-01
   43        1.858203e+00
   44       -3.627177e-01
   45        1.208699e+00
   46       -1.160058e+00
   47       -1.946086e+00
   48       -3.891691e-01
   49       -5.616111e+00
   50        5.951251e-02
   51       -5.068716e-01
   52        1.120156e+00
   53       -1.194045e-01
   54       -6.104722e+00
   55       -2.291392e+00
   56        4.068603e+00
   57        1.083142e-01
   58       -2.264280e+00
   59       -8.768580e+00
   60        2.061176e-01
   61       -1.432249e+00
   62       -7.863453e-01
   63        4.026983e-01
   64        4.139115e-01
   65       -1.445080e+00
   66       -5.742575e-01
   67        4.875566e+00
   68        1.109888e+00
   69        3.747704e+00
   70        5.716847e-01
   71        1.096223e+00
   72        2.200983e+00
   73       -3.233525e+00
   74       -1.153206e+00
   75        5.425031e-02
   76       -2.435481e+00
   77        2.516996e+00
   78       -1.688361e+00
   79       -1.615366e+00
   80        1.273180e+00
   81       -1.234606e+00
   82       -5.354572e-01
   83       -1.879044e+00
   84       -3.461353e+00
   85       -1.333412e+00
   86       -3.444832e+00
   87        5.850775e-01
   88       -5.406366e+00
   89        1.516188e+00
   90       -1.274959e+00
   91        1.306800e-01
   92        3.240165e+00
   93       -4.250632e+00
   94        2.449668e+00
   95       -2.152636e+00
   96        2.488020e+00
   97        3.812968e+00
   98       -2.090905e+00
   99        2.204069e+00
  100       -2.016085e+00
;
param X:=
    1       -5.989229e-01
    2       -7.054523e-01
    3       -1.750359e-01
    4        4.273247e-01
    5       -1.629299e+00
    6       -1.402239e+00
    7       -3.265897e+00
    8       -2.286162e+00
    9       -3.520531e+00
   10       -3.026924e+00
   11        1.261713e+00
   12        2.558942e+00
   13        9.915660e-01
   14       -3.501240e+00
   15       -2.487475e+00
   16        4.026912e-01
   17       -4.459470e+00
   18        1.144444e+00
   19       -7.394692e-01
   20       -4.978629e-01
   21       -1.189026e+00
   22       -1.023167e+00
   23       -4.856224e-01
   24        2.749151e+00
   25        2.480304e+00
   26       -2.656665e-01
   27       -8.891462e-01
   28        6.404873e-01
   29       -5.949481e-01
   30       -8.716071e-01
   31       -3.683809e+00
   32        3.574723e+00
   33       -4.385763e-02
   34       -1.261981e+00
   35        2.528066e+00
   36        1.489910e+00
   37        3.000828e+00
   38       -3.116724e+00
   39       -6.901557e+00
   40       -3.262750e-02
   41        3.087862e-01
   42        3.623248e-01
   43        1.858203e+00
   44       -3.627177e-01
   45        1.208699e+00
   46       -1.160058e+00
   47       -1.946086e+00
   48       -3.891691e-01
   49       -5.616111e+00
   50        5.951251e-02
   51       -5.207939e-01
   52        1.885900e+00
   53       -1.194045e-01
   54        8.542901e-01
   55       -2.291392e+00
   56       -4.471025e-01
   57        1.083142e-01
   58        8.930713e-01
   59       -8.768580e+00
   60        2.061176e-01
   61       -1.432249e+00
   62        1.176255e+00
   63        4.026983e-01
   64        7.014146e-01
   65       -1.445080e+00
   66        7.142885e-01
   67        9.791727e-01
   68        1.109888e+00
   69        2.937524e-01
   70        8.859987e-01
   71        1.096223e+00
   72       -3.587749e-01
   73       -8.078571e-01
   74       -3.058271e+00
   75        5.425031e-02
   76       -2.435481e+00
   77        2.516996e+00
   78       -1.688361e+00
   79       -1.615366e+00
   80       -8.451614e-01
   81       -1.234606e+00
   82       -5.354572e-01
   83        1.018768e+00
   84       -3.461353e+00
   85       -1.186521e+00
   86       -3.444832e+00
   87       -1.287008e+00
   88       -5.406366e+00
   89        1.516188e+00
   90       -1.274959e+00
   91        6.030182e-01
   92        3.240165e+00
   93       -7.434577e-01
   94        1.084017e+00
   95       -2.152636e+00
   96        2.488020e+00
   97       -1.615357e+00
   98       -8.171885e-01
   99       -1.665426e+00
  100       -2.016085e+00
;
param outliervec:=
    1    0
    2    0
    3    1
    4    1
    5    1
    6    1
    7    0
    8    1
    9    0
   10    0
   11    1
   12    0
   13    1
   14    0
   15    0
   16    1
   17    0
   18    0
   19    1
   20    0
   21    0
   22    0
   23    0
   24    0
   25    1
   26    1
   27    0
   28    1
   29    0
   30    1
   31    0
   32    0
   33    0
   34    1
   35    0
   36    0
   37    0
   38    0
   39    0
   40    1
   41    1
   42    0
   43    0
   44    0
   45    0
   46    0
   47    0
   48    0
   49    0
   50    0
   51    1
   52    1
   53    0
   54    1
   55    0
   56    1
   57    0
   58    1
   59    0
   60    0
   61    0
   62    1
   63    0
   64    1
   65    0
   66    1
   67    1
   68    0
   69    1
   70    1
   71    0
   72    1
   73    1
   74    1
   75    0
   76    0
   77    0
   78    0
   79    0
   80    1
   81    0
   82    0
   83    1
   84    0
   85    1
   86    0
   87    1
   88    0
   89    0
   90    0
   91    1
   92    0
   93    1
   94    1
   95    0
   96    0
   97    1
   98    1
   99    1
  100    0
;